6570
00010000001100010101
3 10 11 11 15 19 17 3 17 17 11 10 19 10 19 15 15 17 10 10 10 11 11 11 11 3 11 17 17 3 17 19 19 10 10 15 10 15 15 15 19 3 3 15 11 10 10 15 15 19 17 17 17 3 3 11 3 10 10 11 11 11 3 3 11 3 15 15 19 15 10 15 19 19 19 19 19 10 19 19 